c Result of efficient AIG-to-CNF conversion using package CNF
p cnf 533 2042
2 3 33 339 -340 0
2 -3 33 -339 -340 0
-2 340 0
-2 3 -339 0
-2 -33 0
-2 -3 339 0
3 -471 -503 0
3 -503 -4 0
3 -471 -4 0
-3 471 4 0
-3 503 4 0
-3 471 503 0
4 -472 -504 0
4 -504 -5 0
4 -472 -5 0
-4 472 5 0
-4 504 5 0
-4 472 504 0
5 -473 -505 0
5 -505 -6 0
5 -473 -6 0
-5 473 6 0
-5 505 6 0
-5 473 505 0
6 -474 -506 0
6 -506 -7 0
6 -474 -7 0
-6 474 7 0
-6 506 7 0
-6 474 506 0
7 -475 -507 0
7 -507 -8 0
7 -475 -8 0
-7 475 8 0
-7 507 8 0
-7 475 507 0
8 -476 -508 0
8 -508 -9 0
8 -476 -9 0
-8 476 9 0
-8 508 9 0
-8 476 508 0
9 -477 -509 0
9 -509 -10 0
9 -477 -10 0
-9 477 10 0
-9 509 10 0
-9 477 509 0
10 -478 -510 0
10 -510 -11 0
10 -478 -11 0
-10 478 11 0
-10 510 11 0
-10 478 510 0
11 -479 -511 0
11 -511 -12 0
11 -479 -12 0
-11 479 12 0
-11 511 12 0
-11 479 511 0
12 -480 -512 0
12 -512 -13 0
12 -480 -13 0
-12 480 13 0
-12 512 13 0
-12 480 512 0
13 -481 -513 0
13 -513 -14 0
13 -481 -14 0
-13 481 14 0
-13 513 14 0
-13 481 513 0
14 -482 -514 0
14 -514 -15 0
14 -482 -15 0
-14 482 15 0
-14 514 15 0
-14 482 514 0
15 -483 -515 0
15 -515 -16 0
15 -483 -16 0
-15 483 16 0
-15 515 16 0
-15 483 515 0
16 -484 -516 0
16 -516 -17 0
16 -484 -17 0
-16 484 17 0
-16 516 17 0
-16 484 516 0
17 -485 -517 0
17 -517 -18 0
17 -485 -18 0
-17 485 18 0
-17 517 18 0
-17 485 517 0
18 -486 -518 0
18 -518 -19 0
18 -486 -19 0
-18 486 19 0
-18 518 19 0
-18 486 518 0
19 -487 -519 0
19 -519 -20 0
19 -487 -20 0
-19 487 20 0
-19 519 20 0
-19 487 519 0
20 -488 -520 0
20 -520 -21 0
20 -488 -21 0
-20 488 21 0
-20 520 21 0
-20 488 520 0
21 -489 -521 0
21 -521 -22 0
21 -489 -22 0
-21 489 22 0
-21 521 22 0
-21 489 521 0
22 -490 -522 0
22 -522 -23 0
22 -490 -23 0
-22 490 23 0
-22 522 23 0
-22 490 522 0
23 -491 -523 0
23 -523 -24 0
23 -491 -24 0
-23 491 24 0
-23 523 24 0
-23 491 523 0
24 -492 -524 0
24 -524 -25 0
24 -492 -25 0
-24 492 25 0
-24 524 25 0
-24 492 524 0
25 -493 -525 0
25 -525 -26 0
25 -493 -26 0
-25 493 26 0
-25 525 26 0
-25 493 525 0
26 -494 -526 0
26 -526 -27 0
26 -494 -27 0
-26 494 27 0
-26 526 27 0
-26 494 526 0
27 -495 -527 0
27 -527 -28 0
27 -495 -28 0
-27 495 28 0
-27 527 28 0
-27 495 527 0
28 -496 -528 0
28 -528 -29 0
28 -496 -29 0
-28 496 29 0
-28 528 29 0
-28 496 528 0
29 -497 -529 0
29 -529 -30 0
29 -497 -30 0
-29 497 30 0
-29 529 30 0
-29 497 529 0
30 -498 -530 0
30 -530 -31 0
30 -498 -31 0
-30 498 31 0
-30 530 31 0
-30 498 530 0
31 -499 -531 0
31 -531 -32 0
31 -499 -32 0
-31 499 32 0
-31 531 32 0
-31 499 531 0
32 -500 -532 0
-32 500 0
-32 532 0
33 34 -338 0
33 34 -3 35 0
-33 -34 0
-33 3 338 0
-33 -35 338 0
-34 470 502 0
34 -470 0
34 -502 0
35 -36 321 323 336 0
-35 -336 0
-35 36 0
-35 -323 0
-35 -321 0
36 37 -171 0
36 37 -307 0
36 37 -39 0
-36 -37 0
-36 39 171 307 0
-37 -6 -38 0
-37 6 38 0
37 6 -38 0
37 -6 38 0
38 473 -505 0
38 -473 505 0
-38 -473 -505 0
-38 473 505 0
-39 493 112 0
-39 40 83 112 0
-39 -40 -83 112 0
39 -112 0
39 -493 40 -83 0
39 -493 -40 83 0
40 41 43 64 -68 0
-40 68 0
-40 -41 0
-40 -64 0
-40 -43 0
-41 -17 -42 0
-41 17 42 0
41 17 -42 0
41 -17 42 0
42 484 -516 0
42 -484 516 0
-42 -484 -516 0
-42 484 516 0
-43 44 46 0
43 -44 0
43 -46 0
-44 483 -515 -16 -45 0
-44 -483 515 -16 -45 0
-44 483 515 16 45 0
-44 -483 -515 16 -45 0
44 -483 45 0
44 515 16 -45 0
44 -483 -515 -16 0
44 -515 45 0
44 483 16 -45 0
44 483 515 -16 0
45 482 -514 0
45 -482 514 0
-45 -482 -514 0
-45 482 514 0
-46 47 54 0
46 -47 0
46 -54 0
-47 -48 -50 52 0
-47 27 48 50 52 0
47 -48 50 0
47 48 -50 0
47 -52 0
47 -27 48 0
48 526 -49 0
48 494 -49 0
-48 49 0
-48 -494 -526 0
49 493 -525 0
49 -493 525 0
-49 -493 -525 0
-49 493 525 0
50 -51 -27 0
50 -493 -525 -51 0
50 493 525 -51 0
-50 51 0
-50 -493 525 27 0
-50 493 -525 27 0
-51 494 526 0
51 -494 0
51 -526 0
52 28 -53 0
52 -28 53 0
-52 -28 -53 0
-52 28 53 0
53 495 -527 0
53 -495 527 0
-53 -495 -527 0
-53 495 527 0
-54 55 57 0
54 -55 0
54 -57 0
55 29 -56 0
55 -29 56 0
-55 -29 -56 0
-55 29 56 0
56 496 -528 0
56 -496 528 0
-56 -496 -528 0
-56 496 528 0
-57 58 60 0
57 -58 0
57 -60 0
-58 486 -518 -19 -59 0
-58 -486 518 -19 -59 0
-58 486 518 19 59 0
-58 -486 -518 19 -59 0
58 -486 59 0
58 518 19 -59 0
58 -486 -518 -19 0
58 -518 59 0
58 486 19 -59 0
58 486 518 -19 0
59 485 -517 0
59 -485 517 0
-59 -485 -517 0
-59 485 517 0
-60 20 61 63 0
-60 -20 61 -63 0
60 -61 0
60 -20 63 0
60 20 -63 0
-61 489 -521 -22 -62 0
-61 -489 521 -22 -62 0
-61 489 521 22 62 0
-61 -489 -521 22 -62 0
61 -489 62 0
61 521 22 -62 0
61 -489 -521 -22 0
61 -521 62 0
61 489 22 -62 0
61 489 521 -22 0
62 488 -520 0
62 -488 520 0
-62 -488 -520 0
-62 488 520 0
63 487 -519 0
63 -487 519 0
-63 -487 -519 0
-63 487 519 0
-64 -23 -65 66 0
-64 23 65 66 0
64 -66 0
64 -23 65 0
64 23 -65 0
65 490 -522 0
65 -490 522 0
-65 -490 -522 0
-65 490 522 0
-66 492 -524 -25 -67 0
-66 -492 524 -25 -67 0
-66 492 524 25 67 0
-66 -492 -524 25 -67 0
66 -492 67 0
66 524 25 -67 0
66 -492 -524 -25 0
66 -524 67 0
66 492 25 -67 0
66 492 524 -25 0
67 491 -523 0
67 -491 523 0
-67 -491 -523 0
-67 491 523 0
68 69 -71 0
-68 -69 0
-68 71 0
69 30 -70 0
69 -30 70 0
-69 -30 -70 0
-69 30 70 0
70 497 -529 0
70 -497 529 0
-70 -497 -529 0
-70 497 529 0
71 72 -74 0
71 -72 -80 0
-71 -72 80 0
-71 72 74 0
72 31 -73 0
72 -31 73 0
-72 -31 -73 0
-72 31 73 0
73 498 -530 0
73 -498 530 0
-73 -498 -530 0
-73 498 530 0
74 -75 -79 0
74 75 -77 0
-74 75 77 0
-74 -75 79 0
75 32 -76 0
75 -32 76 0
-75 -32 -76 0
-75 32 76 0
76 499 -531 0
76 -499 531 0
-76 -499 -531 0
-76 499 531 0
-77 493 78 0
-77 494 -78 0
77 -494 -78 0
77 -493 78 0
78 500 -532 0
78 -500 532 0
-78 -500 -532 0
-78 500 532 0
-79 495 78 0
-79 496 -78 0
79 -496 -78 0
79 -495 78 0
80 -75 -82 0
80 75 -81 0
-80 75 81 0
-80 -75 82 0
-81 497 78 0
-81 498 -78 0
81 -498 -78 0
81 -497 78 0
-82 499 78 0
-82 500 -78 0
82 -500 -78 0
82 -499 78 0
83 -55 84 -103 0
83 55 84 -88 0
-83 -84 0
-83 -55 103 0
-83 55 88 0
-84 85 87 0
84 -85 0
84 -87 0
-85 60 86 0
85 -60 0
85 -86 0
-86 41 47 64 0
86 -41 0
86 -47 0
86 -64 0
-87 44 58 0
87 -44 0
87 -58 0
-88 69 89 0
-88 -69 96 0
88 -69 -96 0
88 69 -89 0
-89 72 93 0
-89 -72 90 0
89 -72 -90 0
89 72 -93 0
90 -75 -92 0
90 75 -91 0
-90 75 91 0
-90 -75 92 0
-91 489 78 0
-91 488 -78 0
91 -489 78 0
91 -488 -78 0
-92 487 78 0
-92 486 -78 0
92 -487 78 0
92 -486 -78 0
93 -75 -95 0
93 75 -94 0
-93 75 94 0
-93 -75 95 0
-94 493 78 0
-94 492 -78 0
94 -493 78 0
94 -492 -78 0
-95 491 78 0
-95 490 -78 0
95 -491 78 0
95 -490 -78 0
96 72 -97 0
96 -72 -100 0
-96 -72 100 0
-96 72 97 0
97 -75 -99 0
97 75 -98 0
-97 75 98 0
-97 -75 99 0
-98 485 78 0
-98 484 -78 0
98 -485 78 0
98 -484 -78 0
-99 483 78 0
-99 482 -78 0
99 -483 78 0
99 -482 -78 0
100 -75 -102 0
100 75 -101 0
-100 75 101 0
-100 -75 102 0
-101 481 78 0
-101 480 -78 0
101 -481 78 0
101 -480 -78 0
-102 479 78 0
-102 478 -78 0
102 -479 78 0
102 -478 -78 0
103 69 -104 0
103 -69 -111 0
-103 -69 111 0
-103 69 104 0
104 72 -105 0
104 -72 -108 0
-104 -72 108 0
-104 72 105 0
105 -75 -107 0
105 75 -106 0
-105 75 106 0
-105 -75 107 0
-106 477 78 0
-106 476 -78 0
106 -477 78 0
106 -476 -78 0
-107 475 78 0
-107 474 -78 0
107 -475 78 0
107 -474 -78 0
108 -75 -110 0
108 75 -109 0
-108 75 109 0
-108 -75 110 0
-109 473 78 0
-109 472 -78 0
109 -473 78 0
109 -472 -78 0
-110 471 78 0
-110 470 -78 0
110 -471 78 0
110 -470 -78 0
111 -469 72 75 78 0
-111 -78 0
-111 -75 0
-111 469 0
-111 -72 0
-112 494 113 0
-112 113 137 145 0
-112 113 -137 -145 0
112 -113 0
112 -494 137 -145 0
112 -494 -137 145 0
113 -487 114 -126 0
113 -487 -114 126 0
-113 487 0
-113 -114 -126 0
-113 114 126 0
114 87 -115 125 0
-114 -87 0
-114 115 0
-114 -125 0
115 69 -116 0
115 -69 -122 0
-115 -69 122 0
-115 69 116 0
116 72 -117 0
116 -72 -120 0
-116 -72 120 0
-116 72 117 0
117 -75 -119 0
117 75 -118 0
-117 75 118 0
-117 -75 119 0
-118 487 78 0
-118 488 -78 0
118 -488 -78 0
118 -487 78 0
-119 489 78 0
-119 490 -78 0
119 -490 -78 0
119 -489 78 0
120 75 -121 0
120 -75 -77 0
-120 -75 77 0
-120 75 121 0
-121 491 78 0
-121 492 -78 0
121 -492 -78 0
121 -491 78 0
122 72 -123 0
122 -72 -124 0
-122 -72 124 0
-122 72 123 0
123 -75 -81 0
123 75 -79 0
-123 75 79 0
-123 -75 81 0
124 -499 75 78 0
124 -500 75 -78 0
-124 -75 0
-124 500 -78 0
-124 499 78 0
-125 55 85 0
125 -55 0
125 -85 0
126 -55 84 -134 0
126 55 84 -127 0
-126 -84 0
-126 -55 134 0
-126 55 127 0
-127 69 131 0
-127 -69 128 0
127 -69 -128 0
127 69 -131 0
128 72 -129 0
128 -72 -130 0
-128 -72 130 0
-128 72 129 0
129 -75 -106 0
129 75 -102 0
-129 75 102 0
-129 -75 106 0
130 -75 -109 0
130 75 -107 0
-130 75 107 0
-130 -75 109 0
131 72 -132 0
131 -72 -133 0
-131 -72 133 0
-131 72 132 0
132 -75 -98 0
132 75 -92 0
-132 75 92 0
-132 -75 98 0
133 -75 -101 0
133 75 -99 0
-133 75 99 0
-133 -75 101 0
134 69 -135 0
-134 -69 0
-134 135 0
135 72 -136 0
-135 -72 0
-135 136 0
136 75 -110 0
136 -469 -75 78 0
-136 469 -75 0
-136 75 110 0
-136 -75 -78 0
137 41 43 64 -138 0
-137 138 0
-137 -41 0
-137 -64 0
-137 -43 0
138 69 -139 0
-138 -69 0
-138 139 0
139 72 -140 0
139 -72 -143 0
-139 -72 143 0
-139 72 140 0
140 -75 -142 0
140 75 -141 0
-140 75 141 0
-140 -75 142 0
-141 494 78 0
-141 495 -78 0
141 -495 -78 0
141 -494 78 0
-142 496 78 0
-142 497 -78 0
142 -497 -78 0
142 -496 78 0
143 -32 -75 0
143 75 -144 0
-143 32 -75 0
-143 75 144 0
-144 498 78 0
-144 499 -78 0
144 -499 -78 0
144 -498 78 0
145 -55 84 -161 0
145 55 84 -146 0
-145 -84 0
-145 -55 161 0
-145 55 146 0
-146 69 147 0
-146 -69 154 0
146 -69 -154 0
146 69 -147 0
-147 72 151 0
-147 -72 148 0
147 -72 -148 0
147 72 -151 0
148 -75 -150 0
148 75 -149 0
-148 75 149 0
-148 -75 150 0
-149 490 78 0
-149 489 -78 0
149 -490 78 0
149 -489 -78 0
-150 488 78 0
-150 487 -78 0
150 -488 78 0
150 -487 -78 0
151 -75 -153 0
151 75 -152 0
-151 75 152 0
-151 -75 153 0
-152 494 78 0
-152 493 -78 0
152 -494 78 0
152 -493 -78 0
-153 492 78 0
-153 491 -78 0
153 -492 78 0
153 -491 -78 0
154 72 -155 0
154 -72 -158 0
-154 -72 158 0
-154 72 155 0
155 -75 -157 0
155 75 -156 0
-155 75 156 0
-155 -75 157 0
-156 486 78 0
-156 485 -78 0
156 -486 78 0
156 -485 -78 0
-157 484 78 0
-157 483 -78 0
157 -484 78 0
157 -483 -78 0
158 -75 -160 0
158 75 -159 0
-158 75 159 0
-158 -75 160 0
-159 482 78 0
-159 481 -78 0
159 -482 78 0
159 -481 -78 0
-160 480 78 0
-160 479 -78 0
160 -480 78 0
160 -479 -78 0
161 69 -162 0
161 -69 -169 0
-161 -69 169 0
-161 69 162 0
162 72 -163 0
162 -72 -166 0
-162 -72 166 0
-162 72 163 0
163 -75 -165 0
163 75 -164 0
-163 75 164 0
-163 -75 165 0
-164 478 78 0
-164 477 -78 0
164 -478 78 0
164 -477 -78 0
-165 476 78 0
-165 475 -78 0
165 -476 78 0
165 -475 -78 0
166 -75 -168 0
166 75 -167 0
-166 75 167 0
-166 -75 168 0
-167 474 78 0
-167 473 -78 0
167 -474 78 0
167 -473 -78 0
-168 472 78 0
-168 471 -78 0
168 -472 78 0
168 -471 -78 0
169 72 -170 0
-169 -72 0
-169 170 0
170 -469 75 -78 0
170 -470 75 78 0
-170 -75 0
-170 469 -78 0
-170 470 78 0
171 44 -172 0
171 44 -273 0
171 44 -252 0
-171 -44 0
-171 172 252 273 0
172 58 -219 0
172 58 -173 0
172 58 -196 0
-172 -58 0
-172 173 196 219 0
-173 485 174 0
-173 174 187 190 0
-173 174 -187 -190 0
173 -174 0
173 -485 187 -190 0
173 -485 -187 190 0
174 -486 175 -178 0
174 -486 -175 178 0
-174 486 0
-174 -175 -178 0
-174 175 178 0
175 -55 85 -177 0
175 55 85 -176 0
-175 -85 0
-175 -55 177 0
-175 55 176 0
-176 -69 162 0
-176 69 154 0
176 69 -154 0
176 -69 -162 0
177 69 -169 0
-177 -69 0
-177 169 0
178 125 -179 0
-178 -125 0
-178 179 0
179 -69 -139 0
179 69 -180 0
-179 69 180 0
-179 -69 139 0
180 72 -181 0
180 -72 -184 0
-180 -72 184 0
-180 72 181 0
181 -75 -183 0
181 75 -182 0
-181 75 182 0
-181 -75 183 0
-182 486 78 0
-182 487 -78 0
182 -487 -78 0
182 -486 78 0
-183 488 78 0
-183 489 -78 0
183 -489 -78 0
183 -488 78 0
184 -75 -186 0
184 75 -185 0
-184 75 185 0
-184 -75 186 0
-185 490 78 0
-185 491 -78 0
185 -491 -78 0
185 -490 78 0
-186 492 78 0
-186 493 -78 0
186 -493 -78 0
186 -492 78 0
187 -55 85 -189 0
187 55 85 -188 0
-187 -85 0
-187 -55 189 0
-187 55 188 0
-188 -69 104 0
-188 69 96 0
188 69 -96 0
188 -69 -104 0
189 69 -111 0
-189 -69 0
-189 111 0
190 125 -191 0
-190 -125 0
-190 191 0
191 -69 -71 0
191 69 -192 0
-191 69 192 0
-191 -69 71 0
192 72 -193 0
192 -72 -195 0
-192 -72 195 0
-192 72 193 0
193 75 -194 0
193 -75 -118 0
-193 -75 118 0
-193 75 194 0
-194 485 78 0
-194 486 -78 0
194 -486 -78 0
194 -485 78 0
195 -75 -121 0
195 75 -119 0
-195 75 119 0
-195 -75 121 0
-196 489 197 0
-196 197 208 215 0
-196 197 -208 -215 0
196 -197 0
196 -489 208 -215 0
196 -489 -208 215 0
197 -490 198 -204 0
197 -490 -198 204 0
-197 490 0
-197 -198 -204 0
-197 198 204 0
198 -55 85 -202 0
198 55 85 -199 0
-198 -85 0
-198 -55 202 0
-198 55 199 0
-199 69 201 0
-199 -69 200 0
199 -69 -200 0
199 69 -201 0
200 72 -158 0
200 -72 -163 0
-200 -72 163 0
-200 72 158 0
201 72 -148 0
201 -72 -155 0
-201 -72 155 0
-201 72 148 0
202 69 -203 0
-202 -69 0
-202 203 0
203 72 -166 0
203 -72 -170 0
-203 -72 170 0
-203 72 166 0
204 125 -205 0
-204 -125 0
-204 205 0
205 69 -206 0
205 -69 -207 0
-205 -69 207 0
-205 69 206 0
206 -72 -140 0
206 72 -184 0
-206 72 184 0
-206 -72 140 0
207 72 -143 0
-207 -72 0
-207 143 0
208 -55 85 -212 0
208 55 85 -209 0
-208 -85 0
-208 -55 212 0
-208 55 209 0
-209 69 211 0
-209 -69 210 0
209 -69 -210 0
209 69 -211 0
210 72 -100 0
210 -72 -105 0
-210 -72 105 0
-210 72 100 0
211 72 -90 0
211 -72 -97 0
-211 -72 97 0
-211 72 90 0
212 69 -213 0
-212 -69 0
-212 213 0
213 72 -108 0
213 -72 75 -214 0
-213 -72 -75 0
-213 72 108 0
-213 -72 214 0
214 -469 78 0
-214 469 0
-214 -78 0
215 125 -216 0
-215 -125 0
-215 216 0
216 69 -217 0
216 -69 -218 0
-216 -69 218 0
-216 69 217 0
217 -72 -74 0
217 72 -195 0
-217 72 195 0
-217 -72 74 0
218 72 -80 0
-218 -72 0
-218 80 0
-219 491 220 0
-219 220 241 248 0
-219 220 -241 -248 0
219 -220 0
219 -491 241 -248 0
219 -491 -241 248 0
220 -492 221 -234 0
220 -492 -221 234 0
-220 492 0
-220 -221 -234 0
-220 221 234 0
221 -55 85 -229 0
221 55 85 -222 0
-221 -85 0
-221 -55 229 0
-221 55 222 0
-222 69 226 0
-222 -69 223 0
222 -69 -223 0
222 69 -226 0
223 72 -224 0
223 -72 -225 0
-223 -72 225 0
-223 72 224 0
224 -75 -159 0
224 75 -157 0
-224 75 157 0
-224 -75 159 0
225 -75 -164 0
225 75 -160 0
-225 75 160 0
-225 -75 164 0
226 72 -227 0
226 -72 -228 0
-226 -72 228 0
-226 72 227 0
227 75 -153 0
227 -75 -149 0
-227 -75 149 0
-227 75 153 0
228 -75 -156 0
228 75 -150 0
-228 75 150 0
-228 -75 156 0
229 69 -230 0
-229 -69 0
-229 230 0
230 72 -231 0
230 -72 -232 0
-230 -72 232 0
-230 72 231 0
231 -75 -167 0
231 75 -165 0
-231 75 165 0
-231 -75 167 0
232 -75 -233 0
232 75 -168 0
-232 75 168 0
-232 -75 233 0
-233 470 78 0
-233 469 -78 0
233 -470 78 0
233 -469 -78 0
234 125 -235 0
-234 -125 0
-234 235 0
235 69 -236 0
235 -69 -239 0
-235 -69 239 0
-235 69 236 0
236 72 -237 0
236 -72 -238 0
-236 -72 238 0
-236 72 237 0
237 75 -186 0
237 -75 -141 0
-237 -75 141 0
-237 75 186 0
238 -75 -144 0
238 75 -142 0
-238 75 142 0
-238 -75 144 0
239 72 -240 0
-239 -72 0
-239 240 0
240 499 -531 -32 0
240 -499 531 -32 0
-240 32 0
-240 499 531 0
-240 -499 -531 0
241 -55 85 -246 0
241 55 85 -242 0
-241 -85 0
-241 -55 246 0
-241 55 242 0
-242 69 244 0
-242 -69 243 0
242 -69 -243 0
242 69 -244 0
243 -72 -129 0
243 72 -133 0
-243 72 133 0
-243 -72 129 0
244 -72 -132 0
244 72 -245 0
-244 72 245 0
-244 -72 132 0
245 75 -95 0
245 -75 -91 0
-245 -75 91 0
-245 75 95 0
246 69 -247 0
-246 -69 0
-246 247 0
247 72 -130 0
247 -72 -136 0
-247 -72 136 0
-247 72 130 0
248 125 -249 0
-248 -125 0
-248 249 0
249 69 -250 0
249 -69 -251 0
-249 -69 251 0
-249 69 250 0
250 72 -120 0
250 -72 -123 0
-250 -72 123 0
-250 72 120 0
251 72 -124 0
-251 -72 0
-251 124 0
-252 498 263 0
-252 -253 -255 263 0
-252 253 255 263 0
252 -263 0
252 -498 253 -255 0
252 -498 -253 255 0
253 41 46 64 -254 0
-253 254 0
-253 -41 0
-253 -64 0
-253 -46 0
254 69 -207 0
-254 -69 0
-254 207 0
255 -55 256 -262 0
255 55 256 -257 0
-255 -256 0
-255 -55 262 0
-255 55 257 0
-256 57 86 0
256 -57 0
256 -86 0
-257 -69 201 0
-257 69 258 0
257 -69 -201 0
257 69 -258 0
-258 -72 151 0
-258 72 259 0
258 -72 -151 0
258 72 -259 0
-259 75 260 0
-259 -75 261 0
259 -75 -261 0
259 75 -260 0
-260 498 78 0
-260 497 -78 0
260 -498 78 0
260 -497 -78 0
-261 496 78 0
-261 495 -78 0
261 -496 78 0
261 -495 -78 0
262 69 -200 0
262 -69 -203 0
-262 -69 203 0
-262 69 200 0
263 -500 256 264 -266 0
-263 -256 0
-263 266 0
-263 500 0
-263 -264 0
264 41 46 64 -265 0
-264 265 0
-264 -41 0
-264 -64 0
-264 -46 0
265 69 -239 0
-265 -69 0
-265 239 0
-266 55 267 0
-266 -55 272 0
266 -55 -272 0
266 55 -267 0
-267 -69 226 0
-267 69 268 0
267 -69 -226 0
267 69 -268 0
-268 72 269 0
-268 -72 271 0
268 -72 -271 0
268 72 -269 0
-269 -75 260 0
-269 32 75 270 0
269 -32 75 0
269 -75 -260 0
269 75 -270 0
270 -499 -78 0
-270 499 0
-270 78 0
271 75 -261 0
271 -75 -152 0
-271 -75 152 0
-271 75 261 0
272 69 -223 0
272 -69 -230 0
-272 -69 230 0
-272 69 223 0
-273 488 286 0
-273 274 280 286 0
-273 -274 -280 286 0
273 -286 0
273 -488 274 -280 0
273 -488 -274 280 0
274 275 -276 0
-274 -275 0
-274 276 0
-275 54 86 0
275 -54 0
275 -86 0
276 69 -277 0
276 -69 -279 0
-276 -69 279 0
-276 69 277 0
277 -72 -237 0
277 72 -278 0
-277 72 278 0
-277 -72 237 0
278 -75 -185 0
278 75 -183 0
-278 75 183 0
-278 -75 185 0
279 -72 -240 0
279 72 -238 0
-279 72 238 0
-279 -72 240 0
280 -55 256 -284 0
280 55 256 -281 0
-280 -256 0
-280 -55 284 0
-280 55 281 0
-281 69 283 0
-281 -69 282 0
281 -69 -282 0
281 69 -283 0
282 72 -225 0
282 -72 -231 0
-282 -72 231 0
-282 72 225 0
283 -72 -224 0
283 72 -228 0
-283 72 228 0
-283 -72 224 0
284 69 -285 0
-284 -69 0
-284 285 0
285 72 -232 0
-285 -72 0
-285 232 0
-286 497 287 0
-286 287 300 302 0
-286 287 -300 -302 0
286 -287 0
286 -497 300 -302 0
286 -497 -300 302 0
287 -499 288 -290 0
287 -499 -288 290 0
-287 499 0
-287 -288 -290 0
-287 288 290 0
288 41 46 64 -289 0
-288 289 0
-288 -41 0
-288 -64 0
-288 -46 0
289 69 -251 0
-289 -69 0
-289 251 0
290 -55 256 -299 0
290 55 256 -291 0
-290 -256 0
-290 -55 299 0
-290 55 291 0
-291 -69 244 0
-291 69 292 0
291 -69 -244 0
291 69 -292 0
-292 72 293 0
-292 -72 297 0
292 -72 -297 0
292 72 -293 0
-293 -75 296 0
-293 75 294 295 0
293 75 -294 0
293 -75 -296 0
293 75 -295 0
294 -498 -78 0
-294 498 0
-294 78 0
295 -499 78 0
-295 499 0
-295 -78 0
-296 497 78 0
-296 496 -78 0
296 -497 78 0
296 -496 -78 0
297 75 -298 0
297 -75 -94 0
-297 -75 94 0
-297 75 298 0
-298 495 78 0
-298 494 -78 0
298 -495 78 0
298 -494 -78 0
299 69 -243 0
299 -69 -247 0
-299 -69 247 0
-299 69 243 0
300 41 46 64 -301 0
-300 301 0
-300 -41 0
-300 -64 0
-300 -46 0
301 69 -218 0
-301 -69 0
-301 218 0
302 -55 256 -306 0
302 55 256 -303 0
-302 -256 0
-302 -55 306 0
-302 55 303 0
-303 -69 211 0
-303 69 304 0
303 -69 -211 0
303 69 -304 0
-304 -72 93 0
-304 72 305 0
304 -72 -93 0
304 72 -305 0
-305 75 296 0
-305 -75 298 0
305 -75 -298 0
305 75 -296 0
306 69 -210 0
306 -69 -213 0
-306 -69 213 0
-306 69 210 0
-307 496 308 0
-307 308 315 317 0
-307 308 -315 -317 0
307 -308 0
307 -496 315 -317 0
307 -496 -315 317 0
308 -495 309 -311 0
308 -495 -309 311 0
-308 495 0
-308 -309 -311 0
-308 309 311 0
309 41 43 64 -310 0
-309 310 0
-309 -41 0
-309 -64 0
-309 -43 0
310 69 -122 0
-310 -69 0
-310 122 0
311 -55 84 -314 0
311 55 84 -312 0
-311 -84 0
-311 -55 314 0
-311 55 312 0
-312 -69 131 0
-312 69 313 0
312 -69 -131 0
312 69 -313 0
-313 72 297 0
-313 -72 245 0
313 -72 -245 0
313 72 -297 0
314 69 -128 0
314 -69 -135 0
-314 -69 135 0
-314 69 128 0
315 41 43 64 -316 0
-315 316 0
-315 -41 0
-315 -64 0
-315 -43 0
316 69 -279 0
-316 -69 0
-316 279 0
317 -55 84 -320 0
317 55 84 -318 0
-317 -84 0
-317 -55 320 0
-317 55 318 0
-318 -69 283 0
-318 69 319 0
318 -69 -283 0
318 69 -319 0
-319 72 271 0
-319 -72 227 0
319 -72 -227 0
319 72 -271 0
320 69 -282 0
320 -69 -285 0
-320 -69 285 0
-320 69 282 0
-321 480 -512 -13 -322 0
-321 -480 512 -13 -322 0
-321 480 512 13 322 0
-321 -480 -512 13 -322 0
321 -480 322 0
321 512 13 -322 0
321 -480 -512 -13 0
321 -512 322 0
321 480 13 -322 0
321 480 512 -13 0
322 479 -511 0
322 -479 511 0
-322 -479 -511 0
-322 479 511 0
-323 -324 -326 328 0
-323 8 324 326 328 0
323 -324 326 0
323 324 -326 0
323 -328 0
323 -8 324 0
324 507 -325 0
324 475 -325 0
-324 325 0
-324 -475 -507 0
325 474 -506 0
325 -474 506 0
-325 -474 -506 0
-325 474 506 0
326 -327 -8 0
326 -474 -506 -327 0
326 474 506 -327 0
-326 327 0
-326 -474 506 8 0
-326 474 -506 8 0
-327 475 507 0
327 -475 0
327 -507 0
-328 11 329 331 332 0
-328 -11 329 -331 332 0
328 -329 0
328 -11 331 0
328 -332 0
328 11 -331 0
329 -477 330 0
329 -477 -509 -10 0
329 -509 330 0
329 -10 330 0
-329 509 -330 0
-329 477 509 10 0
-329 477 -330 0
-329 10 -330 0
330 476 -508 0
330 -476 508 0
-330 -476 -508 0
-330 476 508 0
331 478 -510 0
331 -478 510 0
-331 -478 -510 0
-331 478 510 0
332 -333 334 0
-332 333 0
-332 -334 0
333 509 -330 0
333 477 -330 0
-333 330 0
-333 -477 -509 0
334 -335 -10 0
334 -476 -508 -335 0
334 476 508 -335 0
-334 335 0
-334 -476 508 10 0
-334 476 -508 10 0
-335 477 509 0
335 -477 0
335 -509 0
-336 -14 -337 0
-336 14 337 0
336 14 -337 0
336 -14 337 0
337 481 -513 0
337 -481 513 0
-337 -481 -513 0
-337 481 513 0
-338 -469 -501 0
-338 469 501 0
338 469 -501 0
338 -469 501 0
339 470 -338 0
339 502 -338 0
-339 338 0
-339 -470 -502 0
340 341 343 -344 0
-340 344 0
-340 -343 0
-340 -341 0
341 -472 342 0
341 -472 -504 -5 0
341 -504 342 0
341 -5 342 0
-341 504 -342 0
-341 472 504 5 0
-341 472 -342 0
-341 5 -342 0
342 471 -503 0
342 -471 503 0
-342 -471 -503 0
-342 471 503 0
343 -502 338 0
343 -470 338 0
-343 -338 0
-343 470 502 0
344 -35 345 0
344 -346 -348 0
344 345 -348 0
344 -35 -346 0
-344 -345 346 0
-344 35 348 0
345 504 -342 0
345 472 -342 0
-345 342 0
-345 -472 -504 0
346 -347 -5 0
346 -471 -503 -347 0
346 471 503 -347 0
-346 347 0
-346 -471 503 5 0
-346 471 -503 5 0
-347 472 504 0
347 -472 0
347 -504 0
348 37 349 -352 467 0
-348 -467 0
-348 -37 0
-348 -349 0
-348 352 0
-349 350 323 343 351 0
349 -323 0
349 -351 0
349 -350 0
349 -343 0
350 -480 322 0
350 -512 322 0
-350 -322 0
-350 480 512 0
351 -480 -512 -13 0
351 480 512 -13 0
-351 13 0
-351 -480 512 0
-351 480 -512 0
-352 353 422 443 453 0
352 -453 0
352 -353 0
352 -443 0
352 -422 0
-353 354 382 388 398 0
353 -398 0
353 -354 0
353 -388 0
353 -382 0
-354 476 355 0
-354 355 369 381 0
-354 355 -369 -381 0
354 -355 0
354 -476 369 -381 0
354 -476 -369 381 0
355 -475 356 -368 0
355 -475 -356 368 0
-355 475 0
-355 -356 -368 0
-355 356 368 0
356 55 256 -357 0
356 -55 -249 256 0
-356 -256 0
-356 55 357 0
-356 -55 249 0
-357 69 358 0
-357 -69 365 0
357 -69 -365 0
357 69 -358 0
-358 -72 362 0
-358 72 359 0
358 72 -359 0
358 -72 -362 0
359 -75 -361 0
359 75 -360 0
-359 75 360 0
-359 -75 361 0
-360 475 78 0
-360 476 -78 0
360 -476 -78 0
360 -475 78 0
-361 477 78 0
-361 478 -78 0
361 -478 -78 0
361 -477 78 0
362 -75 -364 0
362 75 -363 0
-362 75 363 0
-362 -75 364 0
-363 479 78 0
-363 480 -78 0
363 -480 -78 0
363 -479 78 0
-364 481 78 0
-364 482 -78 0
364 -482 -78 0
364 -481 78 0
365 -72 -117 0
365 72 -366 0
-365 72 366 0
-365 -72 117 0
366 75 -367 0
366 -75 -194 0
-366 -75 194 0
-366 75 367 0
-367 483 78 0
-367 484 -78 0
367 -484 -78 0
367 -483 78 0
368 41 46 64 -246 0
-368 246 0
-368 -41 0
-368 -64 0
-368 -46 0
369 55 256 -370 0
369 -55 -235 256 0
-369 -256 0
-369 55 370 0
-369 -55 235 0
-370 69 371 0
-370 -69 378 0
370 -69 -378 0
370 69 -371 0
-371 -72 375 0
-371 72 372 0
371 72 -372 0
371 -72 -375 0
372 -75 -374 0
372 75 -373 0
-372 75 373 0
-372 -75 374 0
-373 476 78 0
-373 477 -78 0
373 -477 -78 0
373 -476 78 0
-374 478 78 0
-374 479 -78 0
374 -479 -78 0
374 -478 78 0
375 -75 -377 0
375 75 -376 0
-375 75 376 0
-375 -75 377 0
-376 480 78 0
-376 481 -78 0
376 -481 -78 0
376 -480 78 0
-377 482 78 0
-377 483 -78 0
377 -483 -78 0
377 -482 78 0
378 -72 -278 0
378 72 -379 0
-378 72 379 0
-378 -72 278 0
379 75 -380 0
379 -75 -182 0
-379 -75 182 0
-379 75 380 0
-380 484 78 0
-380 485 -78 0
380 -485 -78 0
380 -484 78 0
381 41 46 64 -229 0
-381 229 0
-381 -41 0
-381 -64 0
-381 -46 0
382 -482 58 383 -384 0
382 -482 58 -383 384 0
-382 -58 0
-382 383 384 0
-382 482 0
-382 -383 -384 0
383 125 -262 0
-383 -125 0
-383 262 0
384 55 85 -385 0
384 -55 85 -254 0
-384 -85 0
-384 55 385 0
-384 -55 254 0
-385 69 386 0
-385 -69 206 0
385 -69 -206 0
385 69 -386 0
386 -72 -181 0
386 72 -387 0
-386 72 387 0
-386 -72 181 0
387 -75 -380 0
387 75 -377 0
-387 75 377 0
-387 -75 380 0
-388 478 389 0
-388 389 393 397 0
-388 389 -393 -397 0
388 -389 0
388 -478 393 -397 0
388 -478 -393 397 0
389 -484 390 -392 0
389 -484 -390 392 0
-389 484 0
-389 -390 -392 0
-389 390 392 0
390 55 256 -391 0
390 -55 256 -265 0
-390 -256 0
-390 55 391 0
-390 -55 265 0
-391 69 378 0
-391 -69 236 0
391 -69 -236 0
391 69 -378 0
392 -272 275 0
-392 272 0
-392 -275 0
393 55 256 -394 0
393 -55 -138 256 0
-393 -256 0
-393 55 394 0
-393 -55 138 0
-394 69 395 0
-394 -69 180 0
394 -69 -180 0
394 69 -395 0
395 -72 -387 0
395 72 -396 0
-395 72 396 0
-395 -72 387 0
396 -75 -376 0
396 75 -374 0
-396 75 374 0
-396 -75 376 0
397 -161 275 0
-397 161 0
-397 -275 0
-398 470 399 0
-398 399 412 421 0
-398 399 -412 -421 0
398 -399 0
398 -470 412 -421 0
398 -470 -412 421 0
399 -469 256 -400 411 0
-399 -256 0
-399 -411 0
-399 469 0
-399 400 0
-400 -55 191 0
-400 55 401 0
400 -55 -191 0
400 55 -401 0
-401 69 402 0
-401 -69 408 0
401 -69 -408 0
401 69 -402 0
-402 72 403 0
-402 -72 406 0
402 -72 -406 0
402 72 -403 0
-403 -75 405 0
-403 75 404 214 0
403 75 -404 0
403 -75 -405 0
403 75 -214 0
404 -470 -78 0
-404 470 0
-404 78 0
-405 471 78 0
-405 472 -78 0
405 -472 -78 0
405 -471 78 0
406 75 -407 0
406 -75 -360 0
-406 -75 360 0
-406 75 407 0
-407 473 78 0
-407 474 -78 0
407 -474 -78 0
407 -473 78 0
408 72 -409 0
408 -72 -410 0
-408 -72 410 0
-408 72 409 0
409 -75 -363 0
409 75 -361 0
-409 75 361 0
-409 -75 363 0
410 -75 -367 0
410 75 -364 0
-410 75 364 0
-410 -75 367 0
411 41 46 64 -189 0
-411 189 0
-411 -41 0
-411 -64 0
-411 -46 0
412 55 256 -413 0
412 -55 -179 256 0
-412 -256 0
-412 55 413 0
-412 -55 179 0
-413 -69 395 0
-413 69 414 0
413 -69 -395 0
413 69 -414 0
-414 72 415 0
-414 -72 419 0
414 -72 -419 0
414 72 -415 0
-415 -75 418 0
-415 75 416 417 0
415 75 -416 0
415 -75 -418 0
415 75 -417 0
416 -471 -78 0
-416 471 0
-416 78 0
417 -470 78 0
-417 470 0
-417 -78 0
-418 472 78 0
-418 473 -78 0
418 -473 -78 0
418 -472 78 0
419 75 -420 0
419 -75 -373 0
-419 -75 373 0
-419 75 420 0
-420 474 78 0
-420 475 -78 0
420 -475 -78 0
420 -474 78 0
421 41 46 64 -177 0
-421 177 0
-421 -41 0
-421 -64 0
-421 -46 0
-422 471 429 0
-422 423 428 429 0
-422 -423 -428 429 0
422 -429 0
422 -471 423 -428 0
422 -471 -423 428 0
423 55 256 -424 0
423 -55 -115 256 0
-423 -256 0
-423 55 424 0
-423 -55 115 0
-424 69 425 0
-424 -69 427 0
424 -69 -427 0
424 69 -425 0
-425 -72 359 0
-425 72 426 0
425 -72 -359 0
425 72 -426 0
-426 75 405 0
-426 -75 407 0
426 -75 -407 0
426 75 -405 0
427 72 -362 0
427 -72 -366 0
-427 -72 366 0
-427 72 362 0
428 41 46 64 -134 0
-428 134 0
-428 -41 0
-428 -64 0
-428 -46 0
-429 480 434 0
-429 430 433 434 0
-429 -430 -433 434 0
429 -434 0
429 -480 430 -433 0
429 -480 -430 433 0
430 55 256 -431 0
430 -55 256 -316 0
-430 -256 0
-430 55 431 0
-430 -55 316 0
-431 69 432 0
-431 -69 277 0
431 -69 -277 0
431 69 -432 0
432 72 -375 0
432 -72 -379 0
-432 -72 379 0
-432 72 375 0
433 275 -320 0
-433 -275 0
-433 320 0
-434 481 435 0
-434 435 439 442 0
-434 435 -439 -442 0
434 -435 0
434 -481 439 -442 0
434 -481 -439 442 0
435 -483 436 -438 0
435 -483 -436 438 0
-435 483 0
-435 -436 -438 0
-435 436 438 0
436 55 256 -437 0
436 -55 256 -289 0
-436 -256 0
-436 55 437 0
-436 -55 289 0
-437 69 365 0
-437 -69 250 0
437 -69 -250 0
437 69 -365 0
438 275 -299 0
-438 -275 0
-438 299 0
439 55 256 -440 0
439 -55 256 -301 0
-439 -256 0
-439 -55 301 0
-439 55 440 0
440 -69 -217 0
440 69 -441 0
-440 69 441 0
-440 -69 217 0
441 -72 -193 0
441 72 -410 0
-441 72 410 0
-441 -72 193 0
442 275 -306 0
-442 -275 0
-442 306 0
-443 474 444 0
-443 444 449 452 0
-443 444 -449 -452 0
443 -444 0
443 -474 449 -452 0
443 -474 -449 452 0
444 -473 445 -448 0
444 -473 -445 448 0
-444 473 0
-444 -445 -448 0
-444 445 448 0
445 55 256 -446 0
445 -55 -216 256 0
-445 -256 0
-445 55 446 0
-445 -55 216 0
-446 -69 441 0
-446 69 447 0
446 -69 -441 0
446 69 -447 0
-447 -72 409 0
-447 72 406 0
447 72 -406 0
447 -72 -409 0
448 41 46 64 -212 0
-448 212 0
-448 -41 0
-448 -64 0
-448 -46 0
449 55 256 -450 0
449 -55 -205 256 0
-449 -256 0
-449 55 450 0
-449 -55 205 0
-450 -69 386 0
-450 69 451 0
450 -69 -386 0
450 69 -451 0
-451 72 419 0
-451 -72 396 0
451 -72 -396 0
451 72 -419 0
452 41 46 64 -202 0
-452 202 0
-452 -41 0
-452 -64 0
-452 -46 0
-453 479 457 0
-453 454 456 457 0
-453 -454 -456 457 0
453 -457 0
453 -479 454 -456 0
453 -479 -454 456 0
454 55 256 -455 0
454 -55 256 -310 0
-454 -256 0
-454 55 455 0
-454 -55 310 0
-455 69 427 0
-455 -69 116 0
455 -69 -116 0
455 69 -427 0
456 275 -314 0
-456 -275 0
-456 314 0
-457 472 458 0
-457 458 462 466 0
-457 458 -462 -466 0
457 -458 0
457 -472 462 -466 0
457 -472 -462 466 0
458 -477 459 -461 0
458 -477 -459 461 0
-458 477 0
-458 -459 -461 0
-458 459 461 0
459 55 256 -460 0
459 -55 -68 256 0
-459 -256 0
-459 55 460 0
-459 -55 68 0
-460 69 408 0
-460 -69 192 0
460 -69 -192 0
460 69 -408 0
461 -103 275 0
-461 103 0
-461 -275 0
462 55 256 -463 0
462 -55 256 -276 0
-462 -256 0
-462 55 463 0
-462 -55 276 0
-463 -69 432 0
-463 69 464 0
463 -69 -432 0
463 69 -464 0
-464 -72 372 0
-464 72 465 0
464 -72 -372 0
464 72 -465 0
-465 75 418 0
-465 -75 420 0
465 -75 -420 0
465 75 -418 0
466 41 46 64 -284 0
-466 284 0
-466 -41 0
-466 -64 0
-466 -46 0
-467 -13 44 336 0
-467 44 468 336 0
467 -336 0
467 -44 0
467 13 -468 0
468 512 -322 0
468 480 -322 0
-468 322 0
-468 -480 -512 0
-533 0
2 0

